NAME: cuum730.tsp
TYPE: TSP
COMMENT: User-generated TSP file
DIMENSION: 730
EDGE_WEIGHT_TYPE: EUC_2D
NODE_COORD_SECTION
1 211.0 576.0
2 473.0 370.0
3 708.0 400.0
4 28.0 218.0
5 100.0 546.0
6 326.0 545.0
7 45.0 563.0
8 24.0 727.0
9 658.0 495.0
10 655.0 237.0
11 298.0 526.0
12 224.0 475.0
13 92.0 604.0
14 406.0 241.0
15 257.0 157.0
16 718.0 485.0
17 217.0 88.0
18 512.0 1.0
19 513.0 571.0
20 155.0 260.0
21 60.0 472.0
22 536.0 545.0
23 590.0 484.0
24 170.0 196.0
25 479.0 315.0
26 370.0 387.0
27 447.0 391.0
28 292.0 447.0
29 232.0 544.0
30 695.0 618.0
31 128.0 601.0
32 459.0 315.0
33 587.0 446.0
34 459.0 395.0
35 113.0 37.0
36 35.0 400.0
37 612.0 66.0
38 721.0 303.0
39 641.0 643.0
40 354.0 305.0
41 237.0 687.0
42 409.0 28.0
43 205.0 334.0
44 318.0 373.0
45 563.0 545.0
46 613.0 78.0
47 367.0 698.0
48 700.0 725.0
49 340.0 286.0
50 472.0 184.0
51 203.0 235.0
52 277.0 646.0
53 122.0 701.0
54 477.0 59.0
55 722.0 409.0
56 18.0 355.0
57 433.0 465.0
58 157.0 488.0
59 632.0 255.0
60 418.0 14.0
61 561.0 593.0
62 729.0 460.0
63 66.0 612.0
64 330.0 89.0
65 240.0 516.0
66 263.0 683.0
67 298.0 545.0
68 367.0 496.0
69 331.0 457.0
70 228.0 159.0
71 25.0 677.0
72 93.0 97.0
73 640.0 730.0
74 525.0 192.0
75 694.0 537.0
76 356.0 22.0
77 366.0 691.0
78 301.0 233.0
79 361.0 287.0
80 360.0 494.0
81 423.0 71.0
82 532.0 729.0
83 672.0 428.0
84 210.0 390.0
85 301.0 265.0
86 567.0 664.0
87 547.0 126.0
88 176.0 610.0
89 492.0 79.0
90 427.0 534.0
91 240.0 511.0
92 242.0 563.0
93 527.0 218.0
94 486.0 543.0
95 242.0 283.0
96 265.0 198.0
97 222.0 331.0
98 170.0 506.0
99 330.0 257.0
100 646.0 12.0
101 649.0 142.0
102 210.0 234.0
103 449.0 398.0
104 717.0 269.0
105 502.0 187.0
106 459.0 347.0
107 340.0 451.0
108 178.0 409.0
109 208.0 357.0
110 718.0 684.0
111 41.0 294.0
112 305.0 547.0
113 39.0 708.0
114 299.0 635.0
115 234.0 311.0
116 450.0 462.0
117 348.0 270.0
118 302.0 175.0
119 559.0 399.0
120 660.0 306.0
121 244.0 380.0
122 620.0 656.0
123 608.0 368.0
124 598.0 35.0
125 471.0 325.0
126 466.0 125.0
127 145.0 573.0
128 598.0 486.0
129 316.0 18.0
130 510.0 682.0
131 568.0 627.0
132 370.0 396.0
133 702.0 639.0
134 563.0 513.0
135 470.0 551.0
136 496.0 555.0
137 217.0 516.0
138 49.0 447.0
139 627.0 656.0
140 322.0 101.0
141 127.0 80.0
142 560.0 376.0
143 157.0 497.0
144 559.0 559.0
145 462.0 612.0
146 688.0 601.0
147 214.0 53.0
148 564.0 210.0
149 438.0 33.0
150 22.0 636.0
151 529.0 156.0
152 217.0 492.0
153 28.0 349.0
154 296.0 615.0
155 682.0 122.0
156 562.0 213.0
157 221.0 399.0
158 640.0 60.0
159 220.0 606.0
160 596.0 9.0
161 610.0 408.0
162 119.0 486.0
163 213.0 411.0
164 52.0 660.0
165 204.0 274.0
166 358.0 466.0
167 153.0 574.0
168 471.0 346.0
169 487.0 214.0
170 84.0 212.0
171 226.0 27.0
172 46.0 101.0
173 438.0 253.0
174 394.0 63.0
175 657.0 573.0
176 634.0 172.0
177 531.0 668.0
178 165.0 583.0
179 356.0 727.0
180 126.0 61.0
181 701.0 346.0
182 291.0 212.0
183 427.0 639.0
184 547.0 510.0
185 198.0 382.0
186 512.0 434.0
187 250.0 248.0
188 287.0 730.0
189 300.0 542.0
190 565.0 407.0
191 6.0 54.0
192 364.0 493.0
193 393.0 499.0
194 282.0 444.0
195 197.0 342.0
196 98.0 694.0
197 345.0 347.0
198 319.0 72.0
199 683.0 2.0
200 294.0 403.0
201 254.0 450.0
202 719.0 137.0
203 641.0 563.0
204 602.0 440.0
205 678.0 346.0
206 485.0 387.0
207 706.0 519.0
208 229.0 259.0
209 153.0 159.0
210 392.0 496.0
211 109.0 199.0
212 505.0 390.0
213 486.0 235.0
214 459.0 157.0
215 655.0 459.0
216 49.0 79.0
217 230.0 615.0
218 120.0 171.0
219 232.0 88.0
220 412.0 75.0
221 116.0 430.0
222 138.0 162.0
223 483.0 118.0
224 102.0 503.0
225 685.0 298.0
226 509.0 56.0
227 460.0 25.0
228 658.0 332.0
229 651.0 618.0
230 619.0 322.0
231 321.0 516.0
232 421.0 623.0
233 362.0 268.0
234 359.0 323.0
235 546.0 577.0
236 252.0 303.0
237 679.0 353.0
238 272.0 593.0
239 78.0 351.0
240 22.0 699.0
241 400.0 238.0
242 340.0 129.0
243 24.0 439.0
244 261.0 522.0
245 69.0 369.0
246 110.0 83.0
247 81.0 567.0
248 93.0 335.0
249 542.0 121.0
250 229.0 460.0
251 389.0 460.0
252 174.0 203.0
253 395.0 660.0
254 669.0 336.0
255 614.0 549.0
256 581.0 269.0
257 666.0 6.0
258 247.0 425.0
259 707.0 563.0
260 415.0 455.0
261 299.0 297.0
262 245.0 215.0
263 363.0 656.0
264 339.0 325.0
265 650.0 555.0
266 129.0 552.0
267 147.0 377.0
268 11.0 252.0
269 202.0 687.0
270 371.0 640.0
271 504.0 557.0
272 171.0 448.0
273 558.0 432.0
274 130.0 677.0
275 653.0 256.0
276 36.0 239.0
277 544.0 442.0
278 429.0 148.0
279 559.0 28.0
280 486.0 220.0
281 400.0 720.0
282 496.0 427.0
283 330.0 644.0
284 292.0 122.0
285 501.0 141.0
286 258.0 692.0
287 44.0 470.0
288 429.0 370.0
289 496.0 361.0
290 411.0 690.0
291 690.0 94.0
292 87.0 557.0
293 153.0 651.0
294 344.0 627.0
295 289.0 641.0
296 581.0 597.0
297 678.0 118.0
298 629.0 434.0
299 403.0 427.0
300 481.0 215.0
301 689.0 266.0
302 38.0 300.0
303 162.0 694.0
304 108.0 151.0
305 355.0 493.0
306 342.0 59.0
307 530.0 405.0
308 379.0 64.0
309 185.0 706.0
310 16.0 45.0
311 542.0 176.0
312 131.0 169.0
313 272.0 275.0
314 558.0 249.0
315 306.0 609.0
316 628.0 278.0
317 548.0 253.0
318 476.0 728.0
319 137.0 684.0
320 91.0 393.0
321 47.0 375.0
322 457.0 391.0
323 517.0 448.0
324 700.0 625.0
325 520.0 672.0
326 160.0 381.0
327 431.0 448.0
328 373.0 98.0
329 196.0 287.0
330 68.0 416.0
331 173.0 458.0
332 365.0 472.0
333 677.0 432.0
334 205.0 237.0
335 287.0 167.0
336 28.0 602.0
337 608.0 134.0
338 143.0 119.0
339 249.0 522.0
340 598.0 517.0
341 299.0 305.0
342 13.0 106.0
343 233.0 570.0
344 252.0 600.0
345 267.0 637.0
346 416.0 488.0
347 51.0 583.0
348 334.0 59.0
349 108.0 691.0
350 293.0 405.0
351 116.0 544.0
352 432.0 714.0
353 250.0 492.0
354 371.0 447.0
355 666.0 106.0
356 46.0 589.0
357 589.0 298.0
358 11.0 474.0
359 220.0 241.0
360 647.0 695.0
361 86.0 494.0
362 26.0 598.0
363 74.0 201.0
364 294.0 300.0
365 536.0 452.0
366 127.0 131.0
367 588.0 453.0
368 571.0 241.0
369 576.0 252.0
370 131.0 422.0
371 508.0 14.0
372 560.0 171.0
373 645.0 663.0
374 342.0 200.0
375 303.0 691.0
376 276.0 464.0
377 365.0 418.0
378 727.0 160.0
379 306.0 249.0
380 561.0 585.0
381 91.0 694.0
382 351.0 643.0
383 327.0 550.0
384 595.0 338.0
385 643.0 438.0
386 15.0 636.0
387 123.0 411.0
388 33.0 722.0
389 36.0 161.0
390 617.0 570.0
391 371.0 271.0
392 387.0 193.0
393 331.0 35.0
394 400.0 343.0
395 48.0 621.0
396 709.0 348.0
397 20.0 40.0
398 205.0 370.0
399 353.0 533.0
400 16.0 278.0
401 279.0 120.0
402 718.0 118.0
403 214.0 151.0
404 560.0 444.0
405 233.0 509.0
406 33.0 606.0
407 626.0 149.0
408 64.0 52.0
409 182.0 512.0
410 452.0 712.0
411 115.0 190.0
412 715.0 125.0
413 268.0 442.0
414 286.0 228.0
415 58.0 572.0
416 98.0 234.0
417 20.0 154.0
418 583.0 478.0
419 183.0 432.0
420 211.0 501.0
421 296.0 671.0
422 682.0 290.0
423 244.0 604.0
424 654.0 650.0
425 186.0 468.0
426 194.0 305.0
427 534.0 157.0
428 375.0 522.0
429 638.0 158.0
430 660.0 245.0
431 390.0 3.0
432 331.0 260.0
433 717.0 700.0
434 555.0 338.0
435 592.0 100.0
436 193.0 23.0
437 561.0 661.0
438 22.0 497.0
439 109.0 547.0
440 486.0 199.0
441 15.0 142.0
442 663.0 575.0
443 668.0 297.0
444 638.0 127.0
445 374.0 122.0
446 478.0 564.0
447 597.0 270.0
448 365.0 431.0
449 584.0 243.0
450 693.0 252.0
451 246.0 26.0
452 152.0 554.0
453 50.0 207.0
454 35.0 580.0
455 125.0 427.0
456 193.0 585.0
457 328.0 179.0
458 118.0 723.0
459 603.0 563.0
460 222.0 97.0
461 255.0 212.0
462 335.0 575.0
463 38.0 4.0
464 455.0 119.0
465 124.0 319.0
466 61.0 693.0
467 625.0 187.0
468 155.0 170.0
469 432.0 52.0
470 6.0 56.0
471 444.0 162.0
472 157.0 60.0
473 287.0 662.0
474 243.0 639.0
475 401.0 405.0
476 431.0 591.0
477 431.0 513.0
478 177.0 182.0
479 134.0 369.0
480 357.0 269.0
481 396.0 222.0
482 693.0 24.0
483 124.0 255.0
484 309.0 40.0
485 264.0 362.0
486 237.0 322.0
487 126.0 372.0
488 38.0 460.0
489 573.0 605.0
490 379.0 367.0
491 623.0 464.0
492 664.0 410.0
493 167.0 703.0
494 52.0 330.0
495 560.0 723.0
496 548.0 568.0
497 706.0 218.0
498 523.0 273.0
499 46.0 498.0
500 570.0 400.0
501 157.0 298.0
502 17.0 380.0
503 344.0 203.0
504 626.0 154.0
505 169.0 51.0
506 101.0 602.0
507 277.0 439.0
508 259.0 676.0
509 109.0 45.0
510 604.0 598.0
511 661.0 664.0
512 351.0 341.0
513 622.0 678.0
514 570.0 287.0
515 124.0 577.0
516 668.0 248.0
517 573.0 69.0
518 292.0 184.0
519 548.0 620.0
520 551.0 23.0
521 408.0 637.0
522 222.0 696.0
523 336.0 6.0
524 725.0 205.0
525 542.0 726.0
526 468.0 394.0
527 156.0 365.0
528 498.0 673.0
529 606.0 572.0
530 576.0 487.0
531 120.0 117.0
532 302.0 556.0
533 530.0 383.0
534 442.0 418.0
535 164.0 593.0
536 355.0 161.0
537 716.0 374.0
538 656.0 508.0
539 163.0 282.0
540 225.0 291.0
541 570.0 617.0
542 120.0 272.0
543 533.0 450.0
544 231.0 219.0
545 183.0 725.0
546 593.0 613.0
547 609.0 389.0
548 1.0 469.0
549 162.0 481.0
550 259.0 58.0
551 427.0 549.0
552 216.0 48.0
553 188.0 574.0
554 427.0 379.0
555 244.0 238.0
556 195.0 71.0
557 212.0 545.0
558 692.0 617.0
559 314.0 133.0
560 3.0 263.0
561 213.0 637.0
562 302.0 461.0
563 635.0 358.0
564 515.0 299.0
565 170.0 371.0
566 356.0 435.0
567 675.0 298.0
568 231.0 395.0
569 350.0 69.0
570 584.0 679.0
571 44.0 210.0
572 704.0 670.0
573 658.0 264.0
574 716.0 571.0
575 326.0 308.0
576 8.0 242.0
577 279.0 272.0
578 234.0 74.0
579 133.0 604.0
580 383.0 224.0
581 23.0 394.0
582 90.0 294.0
583 437.0 618.0
584 30.0 440.0
585 474.0 74.0
586 423.0 580.0
587 179.0 527.0
588 7.0 228.0
589 204.0 15.0
590 63.0 719.0
591 21.0 304.0
592 65.0 360.0
593 460.0 681.0
594 611.0 91.0
595 476.0 104.0
596 311.0 216.0
597 439.0 439.0
598 503.0 13.0
599 432.0 653.0
600 140.0 207.0
601 142.0 26.0
602 27.0 137.0
603 585.0 261.0
604 235.0 435.0
605 415.0 360.0
606 518.0 219.0
607 551.0 388.0
608 482.0 251.0
609 319.0 415.0
610 511.0 223.0
611 371.0 717.0
612 160.0 194.0
613 175.0 482.0
614 88.0 352.0
615 458.0 56.0
616 172.0 162.0
617 670.0 245.0
618 669.0 714.0
619 600.0 502.0
620 288.0 147.0
621 197.0 582.0
622 570.0 538.0
623 711.0 180.0
624 227.0 637.0
625 409.0 40.0
626 680.0 496.0
627 720.0 356.0
628 686.0 548.0
629 415.0 426.0
630 532.0 299.0
631 331.0 448.0
632 554.0 645.0
633 80.0 68.0
634 118.0 368.0
635 527.0 57.0
636 700.0 410.0
637 59.0 539.0
638 268.0 592.0
639 688.0 469.0
640 195.0 692.0
641 187.0 49.0
642 280.0 341.0
643 324.0 446.0
644 99.0 568.0
645 325.0 173.0
646 484.0 123.0
647 314.0 16.0
648 510.0 230.0
649 238.0 508.0
650 568.0 393.0
651 711.0 311.0
652 3.0 249.0
653 294.0 4.0
654 248.0 126.0
655 396.0 203.0
656 325.0 108.0
657 703.0 613.0
658 454.0 259.0
659 419.0 280.0
660 321.0 50.0
661 286.0 502.0
662 618.0 534.0
663 326.0 624.0
664 535.0 552.0
665 378.0 81.0
666 385.0 378.0
667 216.0 208.0
668 359.0 211.0
669 100.0 148.0
670 422.0 715.0
671 140.0 587.0
672 271.0 199.0
673 114.0 151.0
674 275.0 640.0
675 488.0 362.0
676 711.0 507.0
677 29.0 609.0
678 661.0 680.0
679 672.0 18.0
680 448.0 709.0
681 376.0 577.0
682 129.0 636.0
683 482.0 303.0
684 610.0 475.0
685 702.0 10.0
686 587.0 708.0
687 602.0 204.0
688 626.0 350.0
689 15.0 613.0
690 552.0 320.0
691 685.0 32.0
692 220.0 676.0
693 75.0 326.0
694 142.0 335.0
695 395.0 442.0
696 85.0 717.0
697 372.0 639.0
698 637.0 58.0
699 287.0 542.0
700 274.0 667.0
701 369.0 481.0
702 403.0 206.0
703 331.0 152.0
704 495.0 682.0
705 727.0 338.0
706 457.0 572.0
707 561.0 194.0
708 411.0 383.0
709 185.0 38.0
710 582.0 81.0
711 210.0 690.0
712 455.0 198.0
713 226.0 645.0
714 491.0 40.0
715 577.0 295.0
716 487.0 15.0
717 94.0 73.0
718 222.0 566.0
719 402.0 723.0
720 139.0 334.0
721 204.0 159.0
722 102.0 518.0
723 160.0 512.0
724 198.0 437.0
725 158.0 688.0
726 109.0 524.0
727 700.0 470.0
728 183.0 456.0
729 87.0 264.0
730 616.0 564.0
EOF





